
  25    0


   0  12 2 3 4 5 6 7 10 11 12 22 23 24 
   5   6 21 20 16 15 9 8 
   9   3 19 15 13 
   1   3 18 14 13 
   2   2 16 14 
   8   2 15 13 
   6   2 14 13 
   1   1 17 
   9   1 14 
   5   1 13 
   7   1 13 
   3   1 13 
   7   1 25
   4   1 25
   3   1 25
   2   1 25
   1   1 25
   5   1 25
  10   1 25
   3   1 25
   7   1 25
   8   1 25
  10   1 25
   1   1 25
   0   0 
